
Gurobi 6.5.2 (linux64) logging started Tue Sep 20 21:18:50 2016


Gurobi 6.5.2 (linux64) logging started Tue Sep 20 21:18:50 2016

Optimize a model with 201 rows, 1585 columns and 3173 nonzeros
Coefficient statistics:
  Matrix range    [1e+00, 2e+00]
  Objective range [1e+00, 1e+02]
  Bounds range    [1e+00, 1e+00]
  RHS range       [1e+00, 1e+00]
Presolve removed 100 rows and 98 columns
Presolve time: 0.01s
Presolved: 101 rows, 1487 columns, 2974 nonzeros
Variable types: 0 continuous, 1487 integer (1487 binary)

Root relaxation: objective 1.472000e+03, 144 iterations, 0.00 seconds

    Nodes    |    Current Node    |     Objective Bounds      |     Work
 Expl Unexpl |  Obj  Depth IntInf | Incumbent    BestBd   Gap | It/Node Time

     0     0 1472.00000    0    4          - 1472.00000      -     -    0s
     0     0 1472.19444    0   21          - 1472.19444      -     -    0s
     0     0 1472.29167    0   21          - 1472.29167      -     -    0s
     0     0 1472.58333    0   17          - 1472.58333      -     -    0s
     0     0 1472.58333    0   17          - 1472.58333      -     -    0s
     0     2 1472.58333    0   19          - 1472.58333      -     -    0s
*  770   479              36    1511.0000000 1474.50000  2.42%   7.1    0s
*  954   516              20    1509.0000000 1478.00000  2.05%   6.8    0s
H  970   272                    1490.0000000 1478.00000  0.81%   6.8    0s

Cutting planes:
  MIR: 2
  Lazy constraints: 175

Explored 1267 nodes (8296 simplex iterations) in 0.47 seconds
Thread count was 8 (of 8 available processors)

Optimal solution found (tolerance 1.00e-04)
Best objective 1.490000000000e+03, best bound 1.490000000000e+03, gap 0.0%
